This is Ipopt version 3.10.1, running with linear solver mumps.

Number of nonzeros in equality constraint Jacobian...:      236
Number of nonzeros in inequality constraint Jacobian.:        0
Number of nonzeros in Lagrangian Hessian.............:     5892

Total number of variables............................:      120
                     variables with only lower bounds:        0
                variables with lower and upper bounds:      120
                     variables with only upper bounds:        0
Total number of equality constraints.................:       59
Total number of inequality constraints...............:        0
        inequality constraints with only lower bounds:        0
   inequality constraints with lower and upper bounds:        0
        inequality constraints with only upper bounds:        0

iter    objective    inf_pr   inf_du lg(mu)  ||d||  lg(rg) alpha_du alpha_pr  ls
   0 -2.5082312e-03 2.00e-02 1.42e-03  -1.0 0.00e+00    -  0.00e+00 0.00e+00   0
   1 -2.8684491e-03 4.44e-16 4.53e-03  -1.7 2.97e-02    -  9.72e-01 1.00e+00h  1
   2 -2.9629769e-03 2.75e-10 2.06e-05  -2.5 3.55e-02    -  1.00e+00 1.00e+00f  1
   3 -3.7986308e-03 4.44e-16 1.09e-03  -3.8 4.06e-02    -  9.02e-01 1.00e+00f  1
   4 -1.5216314e-02 2.37e-12 1.20e-02  -5.7 3.12e-01  -2.0 5.04e-01 5.49e-01f  1
   5 -3.7059014e-03 1.11e-15 3.28e-02  -5.7 2.53e-01  -1.6 2.21e-01 1.00e+00h  1
   6 -4.0249834e-03 3.54e-13 3.21e-02  -5.7 6.96e-01  -2.1 3.07e-01 2.12e-02f  1
   7 -6.4166857e-03 1.93e-14 2.56e-03  -5.7 7.71e-02  -1.6 8.87e-01 1.00e+00F  1
   8 -8.1202193e-03 4.66e-15 3.54e-03  -5.7 5.06e-02  -1.2 1.00e+00 7.68e-01f  1
   9 -8.1153839e-03 4.44e-15 3.58e-03  -5.7 8.42e-01  -1.7 2.55e-02 1.06e-04f 13
iter    objective    inf_pr   inf_du lg(mu)  ||d||  lg(rg) alpha_du alpha_pr  ls
  10 -8.1749153e-03 3.26e-14 4.56e-03  -5.7 9.62e-02  -1.3 1.00e+00 1.22e-02f  1
  11 -9.4785760e-03 2.22e-16 3.71e-03  -5.7 2.36e-02  -0.8 1.00e+00 1.00e+00f  1
  12 -1.1217640e-02 7.83e-13 7.18e-03  -5.7 1.64e-01  -1.3 1.00e+00 1.51e-01f  1
  13 -1.2351849e-02 5.23e-13 4.96e-03  -5.7 3.97e-02  -0.9 1.00e+00 3.32e-01f  1
  14 -1.4237268e-02 5.09e-13 3.17e-02  -5.7 7.31e-01  -1.4 5.87e-01 2.57e-02f  1
  15 -1.7491351e-02 1.76e-12 6.38e-03  -5.7 6.19e-02  -0.9 1.00e+00 4.33e-01f  1
  16 -1.9437396e-02 1.74e-12 6.46e-03  -5.7 2.26e-02  -0.5 1.00e+00 6.21e-01f  1
  17 -2.4391870e-02 3.41e-12 1.44e-02  -5.7 1.24e-01  -1.0 1.00e+00 2.39e-01f  1
  18 -2.4389721e-02 3.41e-12 1.13e-02  -5.7 3.92e-01  -1.5 8.97e-02 5.96e-05f 15
  19 -2.6237328e-02 4.15e-12 4.67e-02  -5.7 3.05e-01  -1.0 1.00e+00 3.23e-02f  1
iter    objective    inf_pr   inf_du lg(mu)  ||d||  lg(rg) alpha_du alpha_pr  ls
  20 -2.8013645e-02 4.21e-12 8.88e-03  -5.7 4.87e-02  -0.6 1.00e+00 1.97e-01f  1
  21 -3.0479719e-02 4.14e-12 5.35e-02  -5.7 8.79e-01  -1.1 4.61e-01 1.59e-02f  1
  22 -3.7405310e-02 5.01e-12 1.15e-02  -5.7 6.30e-02  -0.7 1.00e+00 4.68e-01f  1
  23 -1.6083060e-02 3.94e-12 2.82e-02  -5.7 9.60e-01  -1.1 3.73e-02 2.13e-01h  2
  24 -1.5499365e-02 3.91e-12 2.79e-02  -5.7 1.51e+00  -1.6 5.53e-02 7.03e-03h  5
  25 -2.8306513e-02 2.78e-15 1.08e-02  -5.7 1.25e-01  -1.2 1.00e+00 1.00e+00F  1
  26 -2.8461615e-02 9.71e-14 8.87e-03  -5.7 6.70e-02  -0.8 1.00e+00 1.74e-02f  1
  27 -3.3474420e-02 9.00e-14 4.85e-02  -5.7 4.80e-01  -1.2 8.96e-01 7.37e-02f  1
  28 -4.9252685e-02 4.44e-16 1.43e-02  -5.7 1.02e-01  -0.8 1.00e+00 1.00e+00f  1
  29 -5.7449452e-02 4.25e-12 1.85e-02  -5.7 4.78e-02  -0.4 1.00e+00 8.19e-01f  1
iter    objective    inf_pr   inf_du lg(mu)  ||d||  lg(rg) alpha_du alpha_pr  ls
  30 -6.1496818e-02 5.73e-12 7.88e-02  -5.7 3.69e-01  -0.9 9.00e-01 4.15e-02f  1
  31 -6.3455443e-02 5.89e-12 2.05e-02  -5.7 7.23e-02  -0.4 1.00e+00 1.11e-01f  1
  32 -7.2328307e-02 8.87e-12 6.58e-02  -5.7 7.95e-01  -0.9 2.75e-01 3.69e-02f  1
  33 -8.0202357e-02 9.84e-12 3.71e-02  -5.7 9.84e-02  -0.5 1.00e+00 2.72e-01f  1
  34 -9.0206204e-02 6.74e-12 2.81e-02  -5.7 3.29e-02  -0.1 1.00e+00 9.09e-01f  1
  35 -9.1455337e-02 6.59e-12 7.42e-02  -5.7 1.59e-01  -0.5 1.00e+00 2.14e-02f  1
  36 -9.0035581e-02 6.29e-12 6.56e-02  -5.7 1.75e+00  -1.0 5.34e-02 4.64e-02h  1
  37 -9.3088138e-02 5.91e-12 6.38e-02  -5.7 1.69e-01  -0.6 1.00e+00 5.96e-02f  1
  38 -9.5177775e-02 6.15e-12 2.61e-02  -5.7 3.78e-02  -0.2 1.00e+00 1.70e-01f  1
  39 -1.0931747e-01 1.07e-11 2.57e-02  -5.7 1.38e-01  -0.6 4.13e-01 2.82e-01f  1
iter    objective    inf_pr   inf_du lg(mu)  ||d||  lg(rg) alpha_du alpha_pr  ls
  40 -1.1308195e-01 1.05e-11 2.86e-02  -5.7 4.64e-02  -0.2 1.00e+00 2.08e-01f  1
  41 -1.2003761e-01 9.54e-12 2.70e-02  -5.7 2.36e-01  -0.7 1.11e-01 9.28e-02f  1
  42 -1.2406961e-01 9.48e-12 3.92e-02  -5.7 5.49e-02  -0.3 1.00e+00 2.03e-01f  1
  43 -1.2732609e-01 1.05e-11 4.24e-02  -5.7 4.69e-01  -0.7 6.58e-02 2.71e-02f  1
  44 -1.2807735e-01 1.02e-11 4.30e-02  -5.7 6.54e-02  -0.3 1.00e+00 3.55e-02f  1
  45 -1.3496029e-01 1.18e-11 4.05e-02  -5.7 6.66e-01  -0.8 5.36e-02 5.03e-02f  1
  46 -1.3616930e-01 1.13e-11 5.04e-02  -5.7 8.21e-02  -0.4 1.00e+00 4.82e-02f  1
  47 -1.4658941e-01 1.46e-11 9.50e-02  -5.7 2.89e-01  -0.8 1.00e+00 1.31e-01f  1
  48 -1.5053480e-01 1.48e-11 3.99e-02  -5.7 7.97e-02  -0.4 1.00e+00 1.79e-01f  1
  49 -1.5446656e-01 1.28e-11 2.48e-02  -5.7 2.54e-02   0.0 1.00e+00 5.35e-01f  1
iter    objective    inf_pr   inf_du lg(mu)  ||d||  lg(rg) alpha_du alpha_pr  ls
  50 -1.5667168e-01 1.28e-11 4.04e-02  -5.7 8.80e-02  -0.5 1.00e+00 9.45e-02f  1
  51 -1.7890320e-01 1.22e-11 3.38e-02  -5.7 2.26e+00  -0.9 3.23e-02 4.47e-02f  1
  52 -2.0127889e-01 1.76e-11 3.80e-02  -5.7 1.65e-01  -0.5 3.68e-01 3.95e-01f  1
  53 -2.0288286e-01 1.73e-11 3.81e-02  -5.7 6.08e-02  -0.1 1.00e+00 6.57e-02f  1
  54 -2.2526238e-01 1.26e-11 6.49e-02  -5.7 2.05e-01  -0.6 9.25e-02 2.72e-01f  1
  55 -2.2625273e-01 1.27e-11 4.61e-02  -5.7 7.83e-02  -0.1 5.74e-01 3.77e-02f  1
  56 -2.5342440e-01 2.03e-11 5.37e-02  -5.7 4.67e-01  -0.6 1.14e-01 1.60e-01f  1
  57 -2.6162478e-01 1.93e-11 9.73e-02  -5.7 7.15e-02  -0.2 1.00e+00 2.23e-01f  1
  58 -2.7535771e-01 1.78e-11 1.74e-01  -5.7 3.04e-01  -0.7 7.10e-01 7.93e-02f  1
  59 -2.9254229e-01 1.84e-11 5.36e-02  -5.7 7.68e-02  -0.2 1.00e+00 3.78e-01f  1
iter    objective    inf_pr   inf_du lg(mu)  ||d||  lg(rg) alpha_du alpha_pr  ls
  60 -3.0790196e-01 2.51e-11 5.07e-02  -5.7 1.27e+00  -0.7 2.77e-02 2.19e-02f  1
  61 -3.0952094e-01 2.45e-11 1.19e-01  -5.7 9.80e-02  -0.3 1.00e+00 2.55e-02f  1
  62 -3.2458485e-01 2.83e-11 1.24e-01  -5.7 5.55e-01  -0.8 1.06e-01 4.39e-02f  1
  63 -3.3032943e-01 2.53e-11 1.11e-01  -5.7 1.04e-01  -0.3 8.42e-02 1.08e-01f  1
  64 -3.4071145e-01 2.35e-11 1.05e-01  -5.7 4.00e-01  -0.8 1.99e-01 7.04e-02f  1
  65 -3.4167646e-01 2.25e-11 1.00e-01  -5.7 1.06e-01  -0.4 7.87e-02 3.96e-02f  1
  66 -3.4680199e-01 2.31e-11 1.68e-01  -5.7 3.60e-01  -0.9 3.44e-01 6.01e-02f  1
  67 -3.5061345e-01 1.74e-11 1.26e-01  -5.7 5.46e-02  -0.5 1.53e-01 2.50e-01f  1
  68 -3.5128166e-01 1.73e-11 1.27e-01  -5.7 1.46e-01  -0.9 1.46e-01 2.33e-02f  1
  69 -3.5443162e-01 1.10e-11 7.55e-02  -5.7 3.89e-02  -0.5 7.45e-01 3.65e-01f  1
iter    objective    inf_pr   inf_du lg(mu)  ||d||  lg(rg) alpha_du alpha_pr  ls
  70 -3.6627708e-01 8.36e-12 7.93e-02  -5.7 2.43e-01  -1.0 1.24e-01 2.38e-01f  1
  71 -3.8075863e-01 2.24e-11 1.83e-02  -5.7 6.13e-02  -0.6 1.00e+00 8.70e-01f  1
  72 -5.0623406e-01 5.26e-11 9.94e-02  -5.7 3.45e+00  -1.0 9.34e-02 7.81e-02f  1
  73 -5.4032243e-01 4.43e-11 6.76e-01  -5.7 4.08e-01  -0.6 1.00e+00 1.57e-01f  1
  74 -5.4032082e-01 4.43e-11 6.41e-01  -5.7 1.00e+00  -1.1 4.39e-02 1.19e-05f 15
  75 -6.2307106e-01 6.73e-11 1.81e+00  -5.7 1.71e+00  -0.7 5.10e-01 5.36e-02f  1
  76 -6.1367067e-01 6.50e-11 1.76e+00  -5.7 1.29e+00  -1.1 2.88e-02 3.49e-02h  1
  77 -4.5944259e-01 1.53e-11 3.59e+00  -5.7 1.17e+00  -0.7 5.05e-03 7.64e-01h  1
  78 -4.6119408e-01 7.15e-12 1.46e+00  -5.7 5.07e-02   0.6 6.47e-01 5.34e-01f  1
  79 -4.8091170e-01 5.20e-11 1.24e+00  -5.7 8.78e-02   0.1 1.37e-01 1.56e-01f  2
iter    objective    inf_pr   inf_du lg(mu)  ||d||  lg(rg) alpha_du alpha_pr  ls
  80 -4.8356387e-01 6.30e-11 8.95e-01  -5.7 2.84e-02   0.6 5.67e-01 5.74e-02f  4
  81 -4.8610945e-01 6.62e-11 9.18e-01  -5.7 1.29e-01   0.1 2.49e-01 1.25e-02f  6
  82 -4.8577554e-01 6.62e-11 5.55e-01  -5.7 8.45e-01  -0.4 2.23e-01 3.68e-04h  1
  83 -4.8604613e-01 6.61e-11 5.54e-01  -5.7 4.24e+00  -0.9 1.15e-02 1.73e-03f  1
  84 -4.8908274e-01 6.60e-11 5.53e-01  -5.7 1.56e+01  -1.3 4.41e-03 1.33e-03f  1
  85 -4.9230030e-01 4.56e-11 4.11e-01  -5.7 1.07e+00  -0.9 9.65e-02 3.09e-01h  1
  86 -4.1830572e-01 3.49e-11 3.12e-01  -5.7 3.91e-01  -0.5 1.25e-01 2.34e-01h  1
  87 -4.1936380e-01 2.71e-11 2.46e-01  -5.7 6.75e-01  -1.0 1.12e-01 2.24e-01f  1
  88 -4.2413230e-01 1.82e-11 1.74e-01  -5.7 2.11e-02   0.4 7.86e-01 3.27e-01f  1
  89 -4.4134947e-01 1.38e-11 1.41e-01  -5.7 9.59e-02  -0.1 1.69e-01 2.43e-01f  1
iter    objective    inf_pr   inf_du lg(mu)  ||d||  lg(rg) alpha_du alpha_pr  ls
  90 -4.4735023e-01 8.66e-12 1.00e-01  -5.7 2.71e-02   0.3 3.71e-01 3.73e-01f  1
  91 -4.7861480e-01 6.18e-12 1.64e-01  -5.7 1.23e-01  -0.2 9.48e-01 2.87e-01f  1
  92 -5.2271297e-01 4.44e-16 7.49e-02  -5.7 3.94e-02   0.3 6.60e-01 1.00e+00f  1
  93 -5.6909098e-01 2.22e-16 3.25e-01  -5.7 5.74e-01  -0.2 3.36e-01 6.10e-02f  1
  94 -5.6817140e-01 3.33e-16 3.23e-01  -5.7 5.19e-01  -0.7 3.90e-03 3.07e-03h  6
  95 -5.7891322e-01 6.82e-12 7.92e-01  -5.7 2.00e+00  -0.3 1.08e-01 4.00e-03f  1
  96 -5.7891198e-01 6.82e-12 7.59e-01  -5.7 8.11e-01  -0.7 2.48e-02 4.61e-06f 15
  97 -5.7370709e-01 6.81e-12 6.84e-01  -5.7 2.75e+00  -0.3 1.15e-02 1.44e-03h  6
  98 -5.9447408e-01 1.92e-11 4.02e-01  -5.7 1.11e-01   0.1 6.64e-01 1.26e-01f  1
  99 -6.6620718e-01 4.97e-11 8.35e-01  -5.7 1.68e+00  -0.4 1.95e-01 2.74e-02f  1
iter    objective    inf_pr   inf_du lg(mu)  ||d||  lg(rg) alpha_du alpha_pr  ls
 100 -6.7956712e-01 4.66e-11 6.31e-01  -5.7 1.40e-01   0.1 2.94e-01 7.09e-02f  1
 101 -6.6537175e-01 4.65e-11 6.11e-01  -5.7 5.83e+00  -0.4 3.80e-03 1.96e-03h  1
 102 -6.7736398e-01 4.36e-11 9.10e-01  -5.7 1.55e-01   0.0 6.47e-03 6.22e-02f  1
 103 -6.7901121e-01 4.24e-11 5.70e-01  -5.7 4.65e-02   0.4 1.00e+00 2.78e-02f  1
 104 -7.6850684e-01 2.91e-11 4.84e-01  -5.7 2.01e-01  -0.0 1.00e+00 3.12e-01f  1
 105 -7.7302136e-01 2.79e-11 3.62e-01  -5.7 6.80e-02   0.4 1.00e+00 4.20e-02f  1
 106 -7.9395394e-01 4.73e-11 3.48e-01  -5.7 1.51e-01  -0.1 6.31e-01 1.67e-01f  1
 107 -7.9395347e-01 4.73e-11 3.44e-01  -5.7 2.10e-01    -  1.47e-02 5.29e-06f 16
 108 -7.5172706e-01 3.62e-11 7.30e-01  -5.7 1.09e+00  -0.6 5.89e-03 2.35e-01h  1
 109 -7.5171698e-01 3.61e-11 5.86e-01  -5.7 6.30e-02  -1.0 1.00e+00 1.88e-03f  6
iter    objective    inf_pr   inf_du lg(mu)  ||d||  lg(rg) alpha_du alpha_pr  ls
 110 -7.5286705e-01 4.44e-16 1.87e-02  -5.7 9.79e-03   0.3 1.00e+00 1.00e+00F  1
 111 -7.4978896e-01 2.22e-16 3.08e-03  -5.7 5.55e-02    -  1.00e+00 1.00e+00h  1
 112 -7.4978996e-01 2.22e-16 4.23e-12  -5.7 2.78e-06    -  1.00e+00 1.00e+00f  1
 113 -7.5000011e-01 2.22e-16 4.46e-08  -8.6 4.61e-05    -  1.00e+00 1.00e+00f  1
 114 -7.4999999e-01 2.15e-11 9.56e-02  -8.6 2.43e-08  -0.2 8.35e-01 1.00e+00f  1
 115 -7.5000002e-01 2.22e-16 9.38e-09  -8.6 4.42e-08  -0.7 1.00e+00 1.00e+00h  1

Number of Iterations....: 115

                                   (scaled)                 (unscaled)
Objective...............:  -7.5000001503400304e-01   -7.5000001503400304e-01
Dual infeasibility......:   9.3806971419539232e-09    9.3806971419539232e-09
Constraint violation....:   2.2204460492503131e-16    2.2204460492503131e-16
Complementarity.........:   4.6817275386321836e-09    4.6817275386321836e-09
Overall NLP error.......:   9.3806971419539232e-09    9.3806971419539232e-09


Number of objective function evaluations             = 225
Number of objective gradient evaluations             = 116
Number of equality constraint evaluations            = 225
Number of inequality constraint evaluations          = 0
Number of equality constraint Jacobian evaluations   = 1
Number of inequality constraint Jacobian evaluations = 0
Number of Lagrangian Hessian evaluations             = 115
Total CPU secs in IPOPT (w/o function evaluations)   =      0.430
Total CPU secs in NLP function evaluations           =      8.030

EXIT: Optimal Solution Found.
